/*********************************************
 * OPL 12.6.0.0 Data
 * Author: Charlie Brown
 * Creation Date: 11 janv. 2016 at 02:12:53
 *********************************************/

 
 
 
 
Team = {"A","B","C","D","E","F","G","H","I","J","K"};

Bus = #[
 	"1"  : {"A","F","G","J","K"} ,
	"2" : {"B","D","E","H","I","J"},
	"3"  : {"C","D","E","G"}
 ]#;
 